Instance0
Gap
100.00%
100.00%
75.42%
73.26%
63.62%
50.63%
50.06%
49.97%
48.21%
47.86%
47.81%
47.80%
47.79%
46.99%
CPXPARAM_MIP_Cuts_Gomory-Disjunctive-MIRCut:Gomory 2
CPXPARAM_MIP_Cuts_Gomory-Disjunctive-MIRCut:Disjunctive 4
CPXPARAM_MIP_Cuts_Gomory-Disjunctive-MIRCut:MIRCut 5
Instance1
Gap
100.00%
100.00%
100.00%
99.28%
95.91%
82.04%
75.41%
74.11%
70.52%
70.26%
68.31%
50.09%
49.85%
49.84%
39.91%
CPXPARAM_MIP_Cuts_Gomory-Disjunctive-MIRCut:Gomory 2
CPXPARAM_MIP_Cuts_Gomory-Disjunctive-MIRCut:Disjunctive 4
CPXPARAM_MIP_Cuts_Gomory-Disjunctive-MIRCut:MIRCut 13
Instance2
Gap
100.00%
100.00%
68.57%
60.19%
48.57%
48.57%
45.68%
44.37%
44.04%
43.93%
40.45%
40.36%
40.16%
33.91%
33.47%
CPXPARAM_MIP_Cuts_Gomory-Disjunctive-MIRCut:Gomory 4
CPXPARAM_MIP_Cuts_Gomory-Disjunctive-MIRCut:Disjunctive 0
CPXPARAM_MIP_Cuts_Gomory-Disjunctive-MIRCut:MIRCut 3
Instance3
Gap
100.00%
100.00%
99.62%
99.49%
95.49%
91.40%
88.61%
84.60%
84.45%
84.43%
76.20%
61.66%
19.89%
3.16%
CPXPARAM_MIP_Cuts_Gomory-Disjunctive-MIRCut:Gomory 1
CPXPARAM_MIP_Cuts_Gomory-Disjunctive-MIRCut:Disjunctive 5
CPXPARAM_MIP_Cuts_Gomory-Disjunctive-MIRCut:MIRCut 5
Instance4
Gap
100.00%
100.00%
100.00%
76.86%
72.59%
66.20%
63.78%
63.71%
52.51%
52.48%
52.44%
52.40%
52.38%
52.38%
52.38%
52.38%
52.22%
CPXPARAM_MIP_Cuts_Gomory-Disjunctive-MIRCut:Gomory 6
CPXPARAM_MIP_Cuts_Gomory-Disjunctive-MIRCut:Disjunctive 0
CPXPARAM_MIP_Cuts_Gomory-Disjunctive-MIRCut:MIRCut 6
Instance5
Gap
100.00%
100.00%
100.00%
99.40%
99.04%
89.27%
80.40%
80.40%
61.17%
56.38%
CPXPARAM_MIP_Cuts_Gomory-Disjunctive-MIRCut:Gomory 0
CPXPARAM_MIP_Cuts_Gomory-Disjunctive-MIRCut:Disjunctive 2
CPXPARAM_MIP_Cuts_Gomory-Disjunctive-MIRCut:MIRCut 7
Instance6
Gap
100.00%
100.00%
69.98%
65.46%
61.28%
49.10%
41.41%
37.35%
36.11%
35.98%
35.92%
35.14%
35.04%
35.03%
34.97%
34.92%
34.87%
34.67%
34.57%
34.48%
34.29%
34.23%
34.00%
33.97%
33.82%
33.75%
33.68%
33.34%
33.09%
32.78%
32.78%
31.92%
CPXPARAM_MIP_Cuts_Gomory-Disjunctive-MIRCut:Gomory 10
CPXPARAM_MIP_Cuts_Gomory-Disjunctive-MIRCut:Disjunctive 0
CPXPARAM_MIP_Cuts_Gomory-Disjunctive-MIRCut:MIRCut 4
Instance7
Gap
100.00%
100.00%
100.00%
99.99%
91.19%
62.71%
62.12%
38.37%
CPXPARAM_MIP_Cuts_Gomory-Disjunctive-MIRCut:Gomory 0
CPXPARAM_MIP_Cuts_Gomory-Disjunctive-MIRCut:Disjunctive 1
CPXPARAM_MIP_Cuts_Gomory-Disjunctive-MIRCut:MIRCut 10
Instance8
Gap
100.00%
100.00%
59.21%
53.34%
46.01%
45.84%
39.16%
36.91%
36.56%
36.50%
34.68%
34.47%
34.06%
34.05%
33.63%
28.08%
27.87%
CPXPARAM_MIP_Cuts_Gomory-Disjunctive-MIRCut:Gomory 1
CPXPARAM_MIP_Cuts_Gomory-Disjunctive-MIRCut:Disjunctive 4
CPXPARAM_MIP_Cuts_Gomory-Disjunctive-MIRCut:MIRCut 5
Instance9
Gap
100.00%
100.00%
100.00%
99.37%
99.21%
92.60%
87.20%
84.52%
83.30%
82.78%
82.49%
79.89%
79.77%
79.77%
79.76%
79.76%
75.73%
75.66%
CPXPARAM_MIP_Cuts_Gomory-Disjunctive-MIRCut:Gomory 6
CPXPARAM_MIP_Cuts_Gomory-Disjunctive-MIRCut:Disjunctive 3
CPXPARAM_MIP_Cuts_Gomory-Disjunctive-MIRCut:MIRCut 8
Instance10
Gap
100.00%
100.00%
62.81%
59.89%
50.10%
43.38%
42.58%
39.88%
39.79%
38.07%
37.76%
37.59%
37.36%
37.34%
37.28%
37.28%
37.27%
37.17%
37.16%
37.16%
35.03%
33.32%
26.76%
26.31%
CPXPARAM_MIP_Cuts_Gomory-Disjunctive-MIRCut:Gomory 8
CPXPARAM_MIP_Cuts_Gomory-Disjunctive-MIRCut:Disjunctive 2
CPXPARAM_MIP_Cuts_Gomory-Disjunctive-MIRCut:MIRCut 3
Instance11
Gap
100.00%
100.00%
99.97%
99.93%
91.71%
88.06%
88.05%
86.60%
85.59%
85.10%
77.57%
75.76%
75.11%
CPXPARAM_MIP_Cuts_Gomory-Disjunctive-MIRCut:Gomory 0
CPXPARAM_MIP_Cuts_Gomory-Disjunctive-MIRCut:Disjunctive 3
CPXPARAM_MIP_Cuts_Gomory-Disjunctive-MIRCut:MIRCut 8
Instance12
Gap
100.00%
100.00%
69.71%
64.56%
53.47%
52.82%
51.97%
50.76%
30.56%
29.38%
29.05%
28.89%
28.66%
28.64%
28.64%
28.50%
28.43%
28.41%
28.41%
28.37%
CPXPARAM_MIP_Cuts_Gomory-Disjunctive-MIRCut:Gomory 6
CPXPARAM_MIP_Cuts_Gomory-Disjunctive-MIRCut:Disjunctive 4
CPXPARAM_MIP_Cuts_Gomory-Disjunctive-MIRCut:MIRCut 5
Instance13
Gap
100.00%
100.00%
100.00%
99.35%
99.30%
94.06%
90.72%
89.15%
87.26%
86.72%
84.62%
84.53%
82.08%
82.00%
78.54%
78.50%
76.95%
67.75%
67.74%
CPXPARAM_MIP_Cuts_Gomory-Disjunctive-MIRCut:Gomory 1
CPXPARAM_MIP_Cuts_Gomory-Disjunctive-MIRCut:Disjunctive 1
CPXPARAM_MIP_Cuts_Gomory-Disjunctive-MIRCut:MIRCut 11
Instance14
Gap
100.00%
100.00%
67.25%
61.80%
55.96%
52.69%
52.61%
52.50%
47.68%
40.79%
34.66%
31.60%
31.59%
31.59%
31.58%
31.52%
CPXPARAM_MIP_Cuts_Gomory-Disjunctive-MIRCut:Gomory 4
CPXPARAM_MIP_Cuts_Gomory-Disjunctive-MIRCut:Disjunctive 3
CPXPARAM_MIP_Cuts_Gomory-Disjunctive-MIRCut:MIRCut 7
Instance15
Gap
100.00%
100.00%
99.71%
99.31%
88.26%
80.57%
62.85%
55.38%
CPXPARAM_MIP_Cuts_Gomory-Disjunctive-MIRCut:Gomory 0
CPXPARAM_MIP_Cuts_Gomory-Disjunctive-MIRCut:Disjunctive 2
CPXPARAM_MIP_Cuts_Gomory-Disjunctive-MIRCut:MIRCut 8
Instance16
Gap
100.00%
100.00%
60.68%
59.49%
50.57%
30.64%
30.09%
28.10%
26.23%
24.80%
24.71%
24.69%
24.68%
22.35%
20.56%
20.27%
CPXPARAM_MIP_Cuts_Gomory-Disjunctive-MIRCut:Gomory 2
CPXPARAM_MIP_Cuts_Gomory-Disjunctive-MIRCut:Disjunctive 2
CPXPARAM_MIP_Cuts_Gomory-Disjunctive-MIRCut:MIRCut 6
Instance17
Gap
100.00%
100.00%
100.00%
99.43%
99.32%
93.50%
88.06%
87.27%
85.81%
80.86%
78.42%
75.80%
69.50%
69.43%
69.29%
CPXPARAM_MIP_Cuts_Gomory-Disjunctive-MIRCut:Gomory 1
CPXPARAM_MIP_Cuts_Gomory-Disjunctive-MIRCut:Disjunctive 3
CPXPARAM_MIP_Cuts_Gomory-Disjunctive-MIRCut:MIRCut 11
Instance18
Gap
100.00%
100.00%
57.84%
51.78%
44.43%
41.76%
40.60%
35.37%
29.68%
29.51%
29.34%
29.34%
29.32%
29.31%
29.26%
29.25%
29.25%
28.62%
22.25%
22.24%
CPXPARAM_MIP_Cuts_Gomory-Disjunctive-MIRCut:Gomory 7
CPXPARAM_MIP_Cuts_Gomory-Disjunctive-MIRCut:Disjunctive 3
CPXPARAM_MIP_Cuts_Gomory-Disjunctive-MIRCut:MIRCut 4
Instance19
Gap
100.00%
100.00%
99.54%
99.29%
93.51%
86.13%
83.50%
80.06%
77.67%
74.64%
74.40%
74.30%
74.27%
68.68%
67.70%
66.47%
CPXPARAM_MIP_Cuts_Gomory-Disjunctive-MIRCut:Gomory 1
CPXPARAM_MIP_Cuts_Gomory-Disjunctive-MIRCut:Disjunctive 3
CPXPARAM_MIP_Cuts_Gomory-Disjunctive-MIRCut:MIRCut 9
Instance20
Gap
100.00%
100.00%
89.26%
78.36%
62.02%
62.01%
60.84%
55.06%
54.94%
49.58%
49.50%
49.47%
49.37%
40.05%
40.01%
40.00%
40.00%
CPXPARAM_MIP_Cuts_Gomory-Disjunctive-MIRCut:Gomory 8
CPXPARAM_MIP_Cuts_Gomory-Disjunctive-MIRCut:Disjunctive 5
CPXPARAM_MIP_Cuts_Gomory-Disjunctive-MIRCut:MIRCut 3
Instance21
Gap
100.00%
100.00%
100.00%
99.52%
98.54%
91.96%
89.99%
83.59%
81.81%
81.69%
75.35%
75.30%
74.33%
70.81%
CPXPARAM_MIP_Cuts_Gomory-Disjunctive-MIRCut:Gomory 3
CPXPARAM_MIP_Cuts_Gomory-Disjunctive-MIRCut:Disjunctive 1
CPXPARAM_MIP_Cuts_Gomory-Disjunctive-MIRCut:MIRCut 13
Instance22
Gap
100.00%
100.00%
88.62%
70.72%
50.14%
41.62%
37.04%
37.02%
36.98%
35.81%
35.15%
35.15%
34.53%
CPXPARAM_MIP_Cuts_Gomory-Disjunctive-MIRCut:Gomory 5
CPXPARAM_MIP_Cuts_Gomory-Disjunctive-MIRCut:Disjunctive 2
CPXPARAM_MIP_Cuts_Gomory-Disjunctive-MIRCut:MIRCut 5
Instance23
Gap
100.00%
100.00%
99.78%
99.46%
91.87%
44.26%
43.06%
38.14%
CPXPARAM_MIP_Cuts_Gomory-Disjunctive-MIRCut:Gomory 0
CPXPARAM_MIP_Cuts_Gomory-Disjunctive-MIRCut:Disjunctive 4
CPXPARAM_MIP_Cuts_Gomory-Disjunctive-MIRCut:MIRCut 5
Instance24
Gap
100.00%
100.00%
84.00%
78.89%
64.26%
63.69%
58.23%
44.56%
44.12%
40.16%
40.04%
40.02%
40.02%
40.02%
39.96%
CPXPARAM_MIP_Cuts_Gomory-Disjunctive-MIRCut:Gomory 1
CPXPARAM_MIP_Cuts_Gomory-Disjunctive-MIRCut:Disjunctive 6
CPXPARAM_MIP_Cuts_Gomory-Disjunctive-MIRCut:MIRCut 2
Instance25
Gap
100.00%
100.00%
99.59%
99.18%
94.72%
77.40%
71.84%
71.26%
70.12%
62.41%
62.15%
55.17%
CPXPARAM_MIP_Cuts_Gomory-Disjunctive-MIRCut:Gomory 0
CPXPARAM_MIP_Cuts_Gomory-Disjunctive-MIRCut:Disjunctive 2
CPXPARAM_MIP_Cuts_Gomory-Disjunctive-MIRCut:MIRCut 13
Instance26
Gap
100.00%
100.00%
84.48%
68.92%
46.15%
37.06%
32.99%
31.53%
29.81%
28.98%
28.08%
27.70%
27.55%
27.55%
27.50%
27.36%
27.30%
26.31%
26.07%
CPXPARAM_MIP_Cuts_Gomory-Disjunctive-MIRCut:Gomory 8
CPXPARAM_MIP_Cuts_Gomory-Disjunctive-MIRCut:Disjunctive 4
CPXPARAM_MIP_Cuts_Gomory-Disjunctive-MIRCut:MIRCut 4
Instance27
Gap
100.00%
100.00%
99.81%
99.61%
94.71%
65.15%
63.89%
62.96%
62.21%
61.51%
53.30%
36.57%
CPXPARAM_MIP_Cuts_Gomory-Disjunctive-MIRCut:Gomory 0
CPXPARAM_MIP_Cuts_Gomory-Disjunctive-MIRCut:Disjunctive 2
CPXPARAM_MIP_Cuts_Gomory-Disjunctive-MIRCut:MIRCut 7
Instance28
Gap
100.00%
100.00%
100.00%
69.66%
57.08%
55.36%
50.76%
45.84%
44.17%
43.41%
42.97%
42.39%
41.22%
41.01%
40.94%
40.89%
40.60%
40.50%
40.40%
39.24%
39.22%
39.20%
39.18%
39.17%
32.13%
31.81%
31.79%
CPXPARAM_MIP_Cuts_Gomory-Disjunctive-MIRCut:Gomory 12
CPXPARAM_MIP_Cuts_Gomory-Disjunctive-MIRCut:Disjunctive 2
CPXPARAM_MIP_Cuts_Gomory-Disjunctive-MIRCut:MIRCut 3
Instance29
Gap
100.00%
100.00%
100.00%
100.00%
93.38%
71.80%
66.03%
62.38%
60.94%
60.89%
60.89%
60.89%
60.18%
CPXPARAM_MIP_Cuts_Gomory-Disjunctive-MIRCut:Gomory 3
CPXPARAM_MIP_Cuts_Gomory-Disjunctive-MIRCut:Disjunctive 2
CPXPARAM_MIP_Cuts_Gomory-Disjunctive-MIRCut:MIRCut 12
Instance30
Gap
100.00%
100.00%
69.10%
61.90%
52.71%
49.96%
48.37%
47.84%
42.82%
39.35%
38.84%
37.41%
36.38%
35.70%
35.48%
35.34%
35.08%
34.97%
33.96%
33.86%
33.77%
33.61%
33.32%
33.08%
32.81%
32.73%
32.71%
32.60%
32.59%
32.57%
32.51%
32.50%
22.70%
22.28%
CPXPARAM_MIP_Cuts_Gomory-Disjunctive-MIRCut:Gomory 24
CPXPARAM_MIP_Cuts_Gomory-Disjunctive-MIRCut:Disjunctive 2
CPXPARAM_MIP_Cuts_Gomory-Disjunctive-MIRCut:MIRCut 3
Instance31
Gap
100.00%
100.00%
99.75%
99.32%
91.61%
78.44%
70.57%
70.05%
68.68%
68.17%
64.86%
51.95%
46.72%
46.72%
24.84%
21.41%
21.41%
21.41%
19.09%
15.93%
15.93%
CPXPARAM_MIP_Cuts_Gomory-Disjunctive-MIRCut:Gomory 0
CPXPARAM_MIP_Cuts_Gomory-Disjunctive-MIRCut:Disjunctive 2
CPXPARAM_MIP_Cuts_Gomory-Disjunctive-MIRCut:MIRCut 2
Instance32
Gap
100.00%
100.00%
100.00%
69.77%
63.45%
56.85%
54.79%
51.83%
51.64%
50.01%
43.72%
42.85%
42.80%
31.04%
30.96%
CPXPARAM_MIP_Cuts_Gomory-Disjunctive-MIRCut:Gomory 0
CPXPARAM_MIP_Cuts_Gomory-Disjunctive-MIRCut:Disjunctive 6
CPXPARAM_MIP_Cuts_Gomory-Disjunctive-MIRCut:MIRCut 6
Instance33
Gap
100.00%
100.00%
100.00%
98.79%
92.52%
86.49%
84.62%
69.20%
65.99%
64.34%
58.06%
43.16%
34.51%
20.50%
CPXPARAM_MIP_Cuts_Gomory-Disjunctive-MIRCut:Gomory 0
CPXPARAM_MIP_Cuts_Gomory-Disjunctive-MIRCut:Disjunctive 0
CPXPARAM_MIP_Cuts_Gomory-Disjunctive-MIRCut:MIRCut 14
Instance34
Gap
100.00%
100.00%
66.38%
51.74%
38.34%
38.34%
38.34%
27.35%
24.11%
CPXPARAM_MIP_Cuts_Gomory-Disjunctive-MIRCut:Gomory 1
CPXPARAM_MIP_Cuts_Gomory-Disjunctive-MIRCut:Disjunctive 2
CPXPARAM_MIP_Cuts_Gomory-Disjunctive-MIRCut:MIRCut 2
Instance35
Gap
100.00%
100.00%
99.38%
98.77%
87.79%
63.79%
60.01%
58.91%
58.01%
49.29%
48.70%
48.42%
48.40%
48.39%
29.57%
16.21%
CPXPARAM_MIP_Cuts_Gomory-Disjunctive-MIRCut:Gomory 4
CPXPARAM_MIP_Cuts_Gomory-Disjunctive-MIRCut:Disjunctive 7
CPXPARAM_MIP_Cuts_Gomory-Disjunctive-MIRCut:MIRCut 6
Instance36
Gap
100.00%
100.00%
100.00%
85.27%
82.45%
71.08%
65.91%
65.56%
60.74%
60.66%
60.36%
60.34%
60.22%
60.21%
60.21%
60.12%
60.02%
56.52%
56.52%
56.52%
56.46%
56.40%
CPXPARAM_MIP_Cuts_Gomory-Disjunctive-MIRCut:Gomory 11
CPXPARAM_MIP_Cuts_Gomory-Disjunctive-MIRCut:Disjunctive 2
CPXPARAM_MIP_Cuts_Gomory-Disjunctive-MIRCut:MIRCut 3
Instance37
Gap
100.00%
100.00%
100.00%
100.00%
100.00%
95.89%
77.74%
77.41%
76.39%
74.16%
64.90%
59.43%
55.99%
52.30%
49.04%
CPXPARAM_MIP_Cuts_Gomory-Disjunctive-MIRCut:Gomory 1
CPXPARAM_MIP_Cuts_Gomory-Disjunctive-MIRCut:Disjunctive 4
CPXPARAM_MIP_Cuts_Gomory-Disjunctive-MIRCut:MIRCut 12
Instance38
Gap
100.00%
100.00%
78.46%
58.43%
34.42%
27.17%
24.84%
24.25%
23.08%
22.18%
21.61%
21.24%
20.14%
19.97%
19.91%
19.90%
19.90%
19.89%
19.87%
CPXPARAM_MIP_Cuts_Gomory-Disjunctive-MIRCut:Gomory 14
CPXPARAM_MIP_Cuts_Gomory-Disjunctive-MIRCut:Disjunctive 7
CPXPARAM_MIP_Cuts_Gomory-Disjunctive-MIRCut:MIRCut 5
Instance39
Gap
100.00%
100.00%
99.77%
99.55%
93.77%
69.21%
65.06%
48.09%
CPXPARAM_MIP_Cuts_Gomory-Disjunctive-MIRCut:Gomory 0
CPXPARAM_MIP_Cuts_Gomory-Disjunctive-MIRCut:Disjunctive 2
CPXPARAM_MIP_Cuts_Gomory-Disjunctive-MIRCut:MIRCut 6
